
Gurobi 9.1.0 (win64) logging started Mon Dec 14 20:14:20 2020

Changed value of parameter LogFile to logs/iteration12
   Prev:   Default: 
Gurobi Optimizer version 9.1.0 build v9.1.0rc0 (win64)
Thread count: 4 physical cores, 8 logical processors, using up to 8 threads
Optimize a model with 136 rows, 686 columns and 2758 nonzeros
Model fingerprint: 0xd041970f
Coefficient statistics:
  Matrix range     [1e+00, 1e+00]
  Objective range  [1e+03, 4e+03]
  Bounds range     [0e+00, 0e+00]
  RHS range        [1e+00, 1e+00]
Presolve removed 19 rows and 20 columns
Presolve time: 0.00s
Presolved: 117 rows, 666 columns, 2733 nonzeros

Iteration    Objective       Primal Inf.    Dual Inf.      Time
       0    7.0718750e+04   8.400000e+01   0.000000e+00      0s
     303    1.0466677e+05   0.000000e+00   0.000000e+00      0s

Solved in 303 iterations and 0.01 seconds
Optimal objective  1.046667667e+05

Solutionx[12] 0.600000 
x[14] 0.200000 
x[24] 1.000000 
x[26] 0.018605 
x[27] 0.981395 
x[28] 0.469767 
x[29] 0.037209 
x[37] 0.865116 
x[38] 0.237209 
x[43] 0.120930 
x[44] 0.400000 
x[45] 0.200000 
x[46] 0.200000 
x[47] 0.069767 
x[55] 1.000000 
x[64] 1.000000 
x[65] 0.200000 
x[67] 0.600000 
x[70] 1.000000 
x[71] 0.400000 
x[72] 1.000000 
x[74] 1.000000 
x[76] 1.000000 
x[77] 1.000000 
x[78] 1.000000 
x[82] 1.000000 
x[100] 0.200000 
x[101] 1.000000 
x[102] 1.000000 
x[103] 1.000000 
x[104] 1.000000 
x[107] 1.000000 
x[113] 1.000000 
x[116] 0.200000 
x[117] 0.800000 
x[118] 1.000000 
x[119] 0.200000 
x[121] 0.800000 
x[122] 1.000000 
x[123] 0.400000 
x[124] 1.000000 
x[125] 1.000000 
x[126] 1.000000 
x[127] 1.000000 
x[128] 1.000000 
x[129] 1.000000 
x[130] 1.000000 
x[131] 1.000000 
x[132] 1.000000 
x[134] 1.000000 
x[135] 1.000000 
x[179] 0.530233 
x[264] 0.055814 
x[436] 0.600000 
x[771] 0.162791 
x[810] 1.000000 
x[819] 0.437209 
x[821] 0.362791 
x[906] 0.037209 
x[1375] 0.134884 
x[1739] 0.265116 
x[2456] 0.134884 
x[3471] 0.800000 
x[5967] 0.200000 
x[8682] 0.018605 
x[24702] 0.739535 
x[1809] 0.241860 
x[9961] 0.800000 
x[4899] 0.665116 
x[6722] 0.200000 
x[15609] 0.134884 
x[27379] 0.200000 
x[31569] 0.200000 
x[375] 0.060465 
x[389] 0.200000 
x[539] 0.093023 
x[879] 0.800000 
x[989] 0.204651 
x[1078] 0.720930 
x[4816] 0.200000 
x[14965] 0.600000 
x[20039] 0.200000 
x[30937] 1.000000 
x[3046] 0.200000 
x[8183] 0.800000 
x[27196] 0.260465 
x[15783] 0.139535 
x[17723] 0.241860 
x[28538] 0.037209 
x[26775] 0.479070 
x[1476] 0.241860 
x[10912] 0.600000 
x[32577] 0.800000 
x[12011] 0.158140 
x[12864] 0.241860 
x[32137] 0.200000 
x[10657] 0.520930 
x[7088] 0.079070 
x[7960] 0.200000 
x[20827] 0.200000 
x[16841] 0.018605 
x[19131] 0.981395 
x[14661] 0.400000 
x[12247] 1.000000 
x[14059] 0.200000 
x[28684] 1.000000 
